array [1..2] of int: X_INTRODUCED_1_ = [1,-1];
var {111,112,121,122,211,212,213}: Vg11:: output_var;
var {111,112,121,122,211,212,213}: Vg12:: output_var;
var {111,112,121,122,211,212,213,221}: Vg13:: output_var;
var {111,112,121,122,211,212,213,221}: Vg14:: output_var;
var {111,112,121,122,211,212,213,221}: Vp1:: output_var;
var {111,112,121,122,211,212,213,221}: Vp2:: output_var;
var {111,112,121,122,211,212,213,221}: Vp3:: output_var;
var {111,112,121,122,211,212,213,221}: Vp4:: output_var;
var 1..2: X_INTRODUCED_2_ ::var_is_introduced :: is_defined_var;
var 1..2: X_INTRODUCED_4_ ::var_is_introduced :: is_defined_var;
var 11..21: X_INTRODUCED_8_ ::var_is_introduced :: is_defined_var;
var -10..10: X_INTRODUCED_9_ ::var_is_introduced ;
var 11..21: X_INTRODUCED_10_ ::var_is_introduced :: is_defined_var;
var -10..10: X_INTRODUCED_11_ ::var_is_introduced ;
var -10..10: X_INTRODUCED_14_ ::var_is_introduced ;
var -10..10: X_INTRODUCED_15_ ::var_is_introduced ;
var 1..2: X_INTRODUCED_17_ ::var_is_introduced :: is_defined_var;
var bool: X_INTRODUCED_18_ ::var_is_introduced :: is_defined_var;
var 11..22: X_INTRODUCED_19_ ::var_is_introduced :: is_defined_var;
var -10..10: X_INTRODUCED_20_ ::var_is_introduced ;
var bool: X_INTRODUCED_21_ ::var_is_introduced :: is_defined_var;
var -10..10: X_INTRODUCED_22_ ::var_is_introduced ;
var bool: X_INTRODUCED_24_ ::var_is_introduced :: is_defined_var;
var 1..2: X_INTRODUCED_25_ ::var_is_introduced :: is_defined_var;
var bool: X_INTRODUCED_26_ ::var_is_introduced :: is_defined_var;
var 11..22: X_INTRODUCED_27_ ::var_is_introduced :: is_defined_var;
var -10..10: X_INTRODUCED_28_ ::var_is_introduced ;
var bool: X_INTRODUCED_31_ ::var_is_introduced :: is_defined_var;
var bool: X_INTRODUCED_32_ ::var_is_introduced :: is_defined_var;
var bool: X_INTRODUCED_33_ ::var_is_introduced :: is_defined_var;
var -10..10: X_INTRODUCED_34_ ::var_is_introduced ;
var bool: X_INTRODUCED_36_ ::var_is_introduced :: is_defined_var;
var bool: X_INTRODUCED_37_ ::var_is_introduced :: is_defined_var;
var bool: X_INTRODUCED_39_ ::var_is_introduced :: is_defined_var;
var bool: X_INTRODUCED_40_ ::var_is_introduced :: is_defined_var;
var bool: X_INTRODUCED_41_ ::var_is_introduced :: is_defined_var;
var bool: X_INTRODUCED_43_ ::var_is_introduced :: is_defined_var;
var bool: X_INTRODUCED_45_ ::var_is_introduced :: is_defined_var;
var bool: X_INTRODUCED_49_ ::var_is_introduced :: is_defined_var;
var bool: X_INTRODUCED_50_ ::var_is_introduced :: is_defined_var;
var bool: X_INTRODUCED_51_ ::var_is_introduced :: is_defined_var;
var bool: X_INTRODUCED_52_ ::var_is_introduced :: is_defined_var;
var bool: X_INTRODUCED_54_ ::var_is_introduced :: is_defined_var;
var bool: X_INTRODUCED_55_ ::var_is_introduced :: is_defined_var;
var bool: X_INTRODUCED_57_ ::var_is_introduced :: is_defined_var;
var bool: X_INTRODUCED_58_ ::var_is_introduced :: is_defined_var;
var bool: X_INTRODUCED_59_ ::var_is_introduced :: is_defined_var;
var bool: X_INTRODUCED_61_ ::var_is_introduced :: is_defined_var;
var bool: X_INTRODUCED_62_ ::var_is_introduced :: is_defined_var;
var bool: X_INTRODUCED_63_ ::var_is_introduced :: is_defined_var;
var bool: X_INTRODUCED_64_ ::var_is_introduced :: is_defined_var;
var 1..2: X_INTRODUCED_65_ ::var_is_introduced :: is_defined_var;
var 1..2: X_INTRODUCED_66_ ::var_is_introduced :: is_defined_var;
var bool: X_INTRODUCED_67_ ::var_is_introduced :: is_defined_var;
var {11,12,21,22}: X_INTRODUCED_68_ ::var_is_introduced :: is_defined_var;
var 1..2: X_INTRODUCED_69_ ::var_is_introduced ;
var {11,12,21,22}: X_INTRODUCED_70_ ::var_is_introduced :: is_defined_var;
var 1..2: X_INTRODUCED_71_ ::var_is_introduced ;
var bool: X_INTRODUCED_72_ ::var_is_introduced :: is_defined_var;
var 1..3: X_INTRODUCED_73_ ::var_is_introduced ;
var 1..3: X_INTRODUCED_74_ ::var_is_introduced ;
var bool: X_INTRODUCED_76_ ::var_is_introduced :: is_defined_var;
var 1..2: X_INTRODUCED_77_ ::var_is_introduced :: is_defined_var;
var bool: X_INTRODUCED_78_ ::var_is_introduced :: is_defined_var;
var {11,12,21,22}: X_INTRODUCED_79_ ::var_is_introduced :: is_defined_var;
var 1..2: X_INTRODUCED_80_ ::var_is_introduced ;
var bool: X_INTRODUCED_82_ ::var_is_introduced :: is_defined_var;
var 1..3: X_INTRODUCED_83_ ::var_is_introduced ;
var bool: X_INTRODUCED_84_ ::var_is_introduced :: is_defined_var;
var 1..2: X_INTRODUCED_85_ ::var_is_introduced :: is_defined_var;
var bool: X_INTRODUCED_87_ ::var_is_introduced :: is_defined_var;
var {11,12,21,22}: X_INTRODUCED_88_ ::var_is_introduced :: is_defined_var;
var 1..2: X_INTRODUCED_89_ ::var_is_introduced ;
var bool: X_INTRODUCED_90_ ::var_is_introduced :: is_defined_var;
var 1..3: X_INTRODUCED_91_ ::var_is_introduced ;
var bool: X_INTRODUCED_92_ ::var_is_introduced :: is_defined_var;
var bool: X_INTRODUCED_93_ ::var_is_introduced :: is_defined_var;
var bool: X_INTRODUCED_95_ ::var_is_introduced :: is_defined_var;
var bool: X_INTRODUCED_96_ ::var_is_introduced :: is_defined_var;
var bool: X_INTRODUCED_97_ ::var_is_introduced :: is_defined_var;
var bool: X_INTRODUCED_99_ ::var_is_introduced :: is_defined_var;
var bool: X_INTRODUCED_100_ ::var_is_introduced :: is_defined_var;
var bool: X_INTRODUCED_101_ ::var_is_introduced :: is_defined_var;
var bool: X_INTRODUCED_103_ ::var_is_introduced :: is_defined_var;
var bool: X_INTRODUCED_104_ ::var_is_introduced :: is_defined_var;
var bool: X_INTRODUCED_105_ ::var_is_introduced :: is_defined_var;
var bool: X_INTRODUCED_106_ ::var_is_introduced :: is_defined_var;
var bool: X_INTRODUCED_107_ ::var_is_introduced :: is_defined_var;
var bool: X_INTRODUCED_108_ ::var_is_introduced :: is_defined_var;
var bool: X_INTRODUCED_109_ ::var_is_introduced :: is_defined_var;
var bool: X_INTRODUCED_110_ ::var_is_introduced :: is_defined_var;
var bool: X_INTRODUCED_111_ ::var_is_introduced :: is_defined_var;
var bool: X_INTRODUCED_112_ ::var_is_introduced :: is_defined_var;
var bool: X_INTRODUCED_114_ ::var_is_introduced :: is_defined_var;
var bool: X_INTRODUCED_117_ ::var_is_introduced :: is_defined_var;
var bool: X_INTRODUCED_119_ ::var_is_introduced :: is_defined_var;
var bool: X_INTRODUCED_120_ ::var_is_introduced :: is_defined_var;
var bool: X_INTRODUCED_122_ ::var_is_introduced :: is_defined_var;
var bool: X_INTRODUCED_123_ ::var_is_introduced :: is_defined_var;
var bool: X_INTRODUCED_125_ ::var_is_introduced :: is_defined_var;
var bool: X_INTRODUCED_126_ ::var_is_introduced :: is_defined_var;
var bool: X_INTRODUCED_127_ ::var_is_introduced :: is_defined_var;
var bool: X_INTRODUCED_128_ ::var_is_introduced :: is_defined_var;
var bool: X_INTRODUCED_129_ ::var_is_introduced :: is_defined_var;
var bool: X_INTRODUCED_130_ ::var_is_introduced :: is_defined_var;
var bool: X_INTRODUCED_137_ ::var_is_introduced :: is_defined_var;
constraint int_lin_ne(X_INTRODUCED_1_,[Vg11,Vg12],0);
constraint int_lin_ne(X_INTRODUCED_1_,[Vg11,Vg13],0);
constraint int_lin_ne(X_INTRODUCED_1_,[Vg11,Vg14],0);
constraint int_lin_ne(X_INTRODUCED_1_,[Vg11,Vp1],0);
constraint int_lin_ne(X_INTRODUCED_1_,[Vg11,Vp2],0);
constraint int_lin_ne(X_INTRODUCED_1_,[Vg11,Vp3],0);
constraint int_lin_ne(X_INTRODUCED_1_,[Vg11,Vp4],0);
constraint int_lin_ne(X_INTRODUCED_1_,[Vg12,Vg13],0);
constraint int_lin_ne(X_INTRODUCED_1_,[Vg12,Vg14],0);
constraint int_lin_ne(X_INTRODUCED_1_,[Vg12,Vp1],0);
constraint int_lin_ne(X_INTRODUCED_1_,[Vg12,Vp2],0);
constraint int_lin_ne(X_INTRODUCED_1_,[Vg12,Vp3],0);
constraint int_lin_ne(X_INTRODUCED_1_,[Vg12,Vp4],0);
constraint int_lin_ne(X_INTRODUCED_1_,[Vg13,Vg14],0);
constraint int_lin_ne(X_INTRODUCED_1_,[Vg13,Vp1],0);
constraint int_lin_ne(X_INTRODUCED_1_,[Vg13,Vp2],0);
constraint int_lin_ne(X_INTRODUCED_1_,[Vg13,Vp3],0);
constraint int_lin_ne(X_INTRODUCED_1_,[Vg13,Vp4],0);
constraint int_lin_ne(X_INTRODUCED_1_,[Vg14,Vp1],0);
constraint int_lin_ne(X_INTRODUCED_1_,[Vg14,Vp2],0);
constraint int_lin_ne(X_INTRODUCED_1_,[Vg14,Vp3],0);
constraint int_lin_ne(X_INTRODUCED_1_,[Vg14,Vp4],0);
constraint int_lin_ne(X_INTRODUCED_1_,[Vp1,Vp2],0);
constraint int_lin_ne(X_INTRODUCED_1_,[Vp1,Vp3],0);
constraint int_lin_ne(X_INTRODUCED_1_,[Vp1,Vp4],0);
constraint int_lin_ne(X_INTRODUCED_1_,[Vp2,Vp3],0);
constraint int_lin_ne(X_INTRODUCED_1_,[Vp2,Vp4],0);
constraint int_lin_ne(X_INTRODUCED_1_,[Vp3,Vp4],0);
constraint int_div(Vg12,100,X_INTRODUCED_2_):: defines_var(X_INTRODUCED_2_);
constraint int_div(Vg11,100,X_INTRODUCED_4_):: defines_var(X_INTRODUCED_4_);
constraint int_lin_eq_reif(X_INTRODUCED_1_,[X_INTRODUCED_2_,X_INTRODUCED_4_],1,false);
constraint int_eq_reif(X_INTRODUCED_2_,X_INTRODUCED_4_,true);
constraint int_div(Vg12,10,X_INTRODUCED_8_):: defines_var(X_INTRODUCED_8_);
constraint int_mod(X_INTRODUCED_8_,10,X_INTRODUCED_9_);
constraint int_div(Vg11,10,X_INTRODUCED_10_):: defines_var(X_INTRODUCED_10_);
constraint int_mod(X_INTRODUCED_10_,10,X_INTRODUCED_11_);
constraint int_mod(Vg12,10,X_INTRODUCED_14_);
constraint int_mod(Vg11,10,X_INTRODUCED_15_);
constraint int_div(Vg13,100,X_INTRODUCED_17_):: defines_var(X_INTRODUCED_17_);
constraint int_div(Vg13,10,X_INTRODUCED_19_):: defines_var(X_INTRODUCED_19_);
constraint int_mod(X_INTRODUCED_19_,10,X_INTRODUCED_20_);
constraint int_mod(Vg13,10,X_INTRODUCED_22_);
constraint int_div(Vg14,100,X_INTRODUCED_25_):: defines_var(X_INTRODUCED_25_);
constraint int_div(Vg14,10,X_INTRODUCED_27_):: defines_var(X_INTRODUCED_27_);
constraint int_mod(X_INTRODUCED_27_,10,X_INTRODUCED_28_);
constraint int_lin_eq_reif(X_INTRODUCED_1_,[X_INTRODUCED_28_,X_INTRODUCED_11_],-2,false);
constraint int_mod(Vg14,10,X_INTRODUCED_34_);
constraint int_lin_eq_reif(X_INTRODUCED_1_,[X_INTRODUCED_28_,X_INTRODUCED_11_],2,false);
constraint int_lin_eq_reif(X_INTRODUCED_1_,[X_INTRODUCED_2_,X_INTRODUCED_4_],-1,false);
constraint array_bool_or([X_INTRODUCED_59_,X_INTRODUCED_55_,X_INTRODUCED_64_,X_INTRODUCED_63_,X_INTRODUCED_62_,X_INTRODUCED_61_,X_INTRODUCED_37_,X_INTRODUCED_41_],true);
constraint int_div(Vp2,100,X_INTRODUCED_65_):: defines_var(X_INTRODUCED_65_);
constraint int_div(Vp1,100,X_INTRODUCED_66_):: defines_var(X_INTRODUCED_66_);
constraint int_div(Vp2,10,X_INTRODUCED_68_):: defines_var(X_INTRODUCED_68_);
constraint int_mod(X_INTRODUCED_68_,10,X_INTRODUCED_69_);
constraint int_div(Vp1,10,X_INTRODUCED_70_):: defines_var(X_INTRODUCED_70_);
constraint int_mod(X_INTRODUCED_70_,10,X_INTRODUCED_71_);
constraint int_mod(Vp2,10,X_INTRODUCED_73_);
constraint int_mod(Vp1,10,X_INTRODUCED_74_);
constraint int_div(Vp3,100,X_INTRODUCED_77_):: defines_var(X_INTRODUCED_77_);
constraint int_div(Vp3,10,X_INTRODUCED_79_):: defines_var(X_INTRODUCED_79_);
constraint int_mod(X_INTRODUCED_79_,10,X_INTRODUCED_80_);
constraint int_mod(Vp3,10,X_INTRODUCED_83_);
constraint int_div(Vp4,100,X_INTRODUCED_85_):: defines_var(X_INTRODUCED_85_);
constraint int_div(Vp4,10,X_INTRODUCED_88_):: defines_var(X_INTRODUCED_88_);
constraint int_mod(X_INTRODUCED_88_,10,X_INTRODUCED_89_);
constraint int_mod(Vp4,10,X_INTRODUCED_91_);
constraint array_bool_and([X_INTRODUCED_112_,X_INTRODUCED_106_,X_INTRODUCED_103_,X_INTRODUCED_101_,X_INTRODUCED_100_,X_INTRODUCED_99_,X_INTRODUCED_96_,X_INTRODUCED_90_,X_INTRODUCED_67_],false);
constraint array_bool_and([X_INTRODUCED_114_,X_INTRODUCED_110_,X_INTRODUCED_109_,X_INTRODUCED_108_,X_INTRODUCED_101_,X_INTRODUCED_97_,X_INTRODUCED_92_,X_INTRODUCED_72_,X_INTRODUCED_67_],false);
constraint array_bool_and([X_INTRODUCED_114_,X_INTRODUCED_109_,X_INTRODUCED_99_,X_INTRODUCED_92_,X_INTRODUCED_90_,X_INTRODUCED_87_,X_INTRODUCED_78_,X_INTRODUCED_72_,X_INTRODUCED_67_],false);
constraint array_bool_and([X_INTRODUCED_117_,X_INTRODUCED_106_,X_INTRODUCED_105_,X_INTRODUCED_101_,X_INTRODUCED_100_,X_INTRODUCED_99_,X_INTRODUCED_96_,X_INTRODUCED_90_,X_INTRODUCED_72_],false);
constraint array_bool_and([X_INTRODUCED_119_,X_INTRODUCED_108_,X_INTRODUCED_106_,X_INTRODUCED_105_,X_INTRODUCED_101_,X_INTRODUCED_96_,X_INTRODUCED_92_,X_INTRODUCED_84_,X_INTRODUCED_72_],false);
constraint array_bool_and([X_INTRODUCED_112_,X_INTRODUCED_99_,X_INTRODUCED_96_,X_INTRODUCED_92_,X_INTRODUCED_90_,X_INTRODUCED_87_,X_INTRODUCED_84_,X_INTRODUCED_78_,X_INTRODUCED_67_],false);
constraint array_bool_and([X_INTRODUCED_127_,X_INTRODUCED_117_,X_INTRODUCED_106_,X_INTRODUCED_101_,X_INTRODUCED_100_,X_INTRODUCED_96_,X_INTRODUCED_90_,X_INTRODUCED_82_,X_INTRODUCED_67_],false);
constraint array_bool_and([X_INTRODUCED_127_,X_INTRODUCED_109_,X_INTRODUCED_96_,X_INTRODUCED_92_,X_INTRODUCED_90_,X_INTRODUCED_87_,X_INTRODUCED_82_,X_INTRODUCED_78_,X_INTRODUCED_67_],false);
constraint array_bool_and([X_INTRODUCED_110_,X_INTRODUCED_108_,X_INTRODUCED_101_,X_INTRODUCED_97_,X_INTRODUCED_96_,X_INTRODUCED_95_,X_INTRODUCED_92_,X_INTRODUCED_84_,X_INTRODUCED_72_],false);
constraint array_bool_and([X_INTRODUCED_117_,X_INTRODUCED_101_,X_INTRODUCED_100_,X_INTRODUCED_97_,X_INTRODUCED_96_,X_INTRODUCED_95_,X_INTRODUCED_90_,X_INTRODUCED_82_,X_INTRODUCED_72_],false);
constraint array_bool_and([X_INTRODUCED_122_,X_INTRODUCED_99_,X_INTRODUCED_92_,X_INTRODUCED_90_,X_INTRODUCED_84_,X_INTRODUCED_78_,X_INTRODUCED_76_,X_INTRODUCED_72_,X_INTRODUCED_67_],false);
constraint array_bool_and([X_INTRODUCED_110_,X_INTRODUCED_108_,X_INTRODUCED_106_,X_INTRODUCED_101_,X_INTRODUCED_92_,X_INTRODUCED_84_,X_INTRODUCED_76_,X_INTRODUCED_72_,X_INTRODUCED_67_],false);
constraint array_bool_or([X_INTRODUCED_137_,X_INTRODUCED_130_,X_INTRODUCED_129_,X_INTRODUCED_128_,X_INTRODUCED_126_,X_INTRODUCED_125_,X_INTRODUCED_123_,X_INTRODUCED_120_,X_INTRODUCED_111_,X_INTRODUCED_107_,X_INTRODUCED_104_,X_INTRODUCED_93_],true);
constraint int_eq_reif(X_INTRODUCED_17_,X_INTRODUCED_4_,X_INTRODUCED_18_):: defines_var(X_INTRODUCED_18_);
constraint int_lin_eq_reif(X_INTRODUCED_1_,[X_INTRODUCED_20_,X_INTRODUCED_11_],-1,X_INTRODUCED_21_):: defines_var(X_INTRODUCED_21_);
constraint int_lin_eq_reif(X_INTRODUCED_1_,[X_INTRODUCED_22_,X_INTRODUCED_15_],-1,X_INTRODUCED_24_):: defines_var(X_INTRODUCED_24_);
constraint int_eq_reif(X_INTRODUCED_25_,X_INTRODUCED_4_,X_INTRODUCED_26_):: defines_var(X_INTRODUCED_26_);
constraint int_eq_reif(X_INTRODUCED_9_,X_INTRODUCED_11_,X_INTRODUCED_31_):: defines_var(X_INTRODUCED_31_);
constraint int_lin_eq_reif(X_INTRODUCED_1_,[X_INTRODUCED_14_,X_INTRODUCED_15_],-1,X_INTRODUCED_32_):: defines_var(X_INTRODUCED_32_);
constraint int_lin_eq_reif(X_INTRODUCED_1_,[X_INTRODUCED_28_,X_INTRODUCED_11_],-1,X_INTRODUCED_33_):: defines_var(X_INTRODUCED_33_);
constraint int_lin_eq_reif(X_INTRODUCED_1_,[X_INTRODUCED_34_,X_INTRODUCED_15_],-2,X_INTRODUCED_36_):: defines_var(X_INTRODUCED_36_);
constraint array_bool_and([X_INTRODUCED_18_,X_INTRODUCED_21_,X_INTRODUCED_24_,X_INTRODUCED_26_,X_INTRODUCED_31_,X_INTRODUCED_32_,X_INTRODUCED_33_,X_INTRODUCED_36_],X_INTRODUCED_37_):: defines_var(X_INTRODUCED_37_);
constraint int_lin_eq_reif(X_INTRODUCED_1_,[X_INTRODUCED_20_,X_INTRODUCED_11_],1,X_INTRODUCED_39_):: defines_var(X_INTRODUCED_39_);
constraint int_lin_eq_reif(X_INTRODUCED_1_,[X_INTRODUCED_28_,X_INTRODUCED_11_],1,X_INTRODUCED_40_):: defines_var(X_INTRODUCED_40_);
constraint array_bool_and([X_INTRODUCED_18_,X_INTRODUCED_24_,X_INTRODUCED_26_,X_INTRODUCED_31_,X_INTRODUCED_32_,X_INTRODUCED_36_,X_INTRODUCED_39_,X_INTRODUCED_40_],X_INTRODUCED_41_):: defines_var(X_INTRODUCED_41_);
constraint int_lin_eq_reif(X_INTRODUCED_1_,[X_INTRODUCED_17_,X_INTRODUCED_4_],1,X_INTRODUCED_43_):: defines_var(X_INTRODUCED_43_);
constraint int_lin_eq_reif(X_INTRODUCED_1_,[X_INTRODUCED_25_,X_INTRODUCED_4_],1,X_INTRODUCED_45_):: defines_var(X_INTRODUCED_45_);
constraint int_lin_eq_reif(X_INTRODUCED_1_,[X_INTRODUCED_14_,X_INTRODUCED_15_],1,X_INTRODUCED_49_):: defines_var(X_INTRODUCED_49_);
constraint int_eq_reif(X_INTRODUCED_20_,X_INTRODUCED_11_,X_INTRODUCED_50_):: defines_var(X_INTRODUCED_50_);
constraint int_lin_eq_reif(X_INTRODUCED_1_,[X_INTRODUCED_22_,X_INTRODUCED_15_],1,X_INTRODUCED_51_):: defines_var(X_INTRODUCED_51_);
constraint int_eq_reif(X_INTRODUCED_28_,X_INTRODUCED_11_,X_INTRODUCED_52_):: defines_var(X_INTRODUCED_52_);
constraint int_lin_eq_reif(X_INTRODUCED_1_,[X_INTRODUCED_34_,X_INTRODUCED_15_],2,X_INTRODUCED_54_):: defines_var(X_INTRODUCED_54_);
constraint array_bool_and([X_INTRODUCED_49_,X_INTRODUCED_45_,X_INTRODUCED_54_,X_INTRODUCED_52_,X_INTRODUCED_51_,X_INTRODUCED_50_,X_INTRODUCED_31_,X_INTRODUCED_43_],X_INTRODUCED_55_):: defines_var(X_INTRODUCED_55_);
constraint int_lin_eq_reif(X_INTRODUCED_1_,[X_INTRODUCED_17_,X_INTRODUCED_4_],-1,X_INTRODUCED_57_):: defines_var(X_INTRODUCED_57_);
constraint int_lin_eq_reif(X_INTRODUCED_1_,[X_INTRODUCED_25_,X_INTRODUCED_4_],-1,X_INTRODUCED_58_):: defines_var(X_INTRODUCED_58_);
constraint array_bool_and([X_INTRODUCED_49_,X_INTRODUCED_58_,X_INTRODUCED_57_,X_INTRODUCED_54_,X_INTRODUCED_52_,X_INTRODUCED_51_,X_INTRODUCED_50_,X_INTRODUCED_31_],X_INTRODUCED_59_):: defines_var(X_INTRODUCED_59_);
constraint array_bool_and([X_INTRODUCED_49_,X_INTRODUCED_54_,X_INTRODUCED_51_,X_INTRODUCED_18_,X_INTRODUCED_26_,X_INTRODUCED_31_,X_INTRODUCED_39_,X_INTRODUCED_40_],X_INTRODUCED_61_):: defines_var(X_INTRODUCED_61_);
constraint array_bool_and([X_INTRODUCED_49_,X_INTRODUCED_54_,X_INTRODUCED_51_,X_INTRODUCED_18_,X_INTRODUCED_21_,X_INTRODUCED_26_,X_INTRODUCED_31_,X_INTRODUCED_33_],X_INTRODUCED_62_):: defines_var(X_INTRODUCED_62_);
constraint array_bool_and([X_INTRODUCED_58_,X_INTRODUCED_57_,X_INTRODUCED_52_,X_INTRODUCED_50_,X_INTRODUCED_24_,X_INTRODUCED_31_,X_INTRODUCED_32_,X_INTRODUCED_36_],X_INTRODUCED_63_):: defines_var(X_INTRODUCED_63_);
constraint array_bool_and([X_INTRODUCED_45_,X_INTRODUCED_52_,X_INTRODUCED_50_,X_INTRODUCED_24_,X_INTRODUCED_31_,X_INTRODUCED_32_,X_INTRODUCED_36_,X_INTRODUCED_43_],X_INTRODUCED_64_):: defines_var(X_INTRODUCED_64_);
constraint int_eq_reif(X_INTRODUCED_65_,X_INTRODUCED_66_,X_INTRODUCED_67_):: defines_var(X_INTRODUCED_67_);
constraint int_eq_reif(X_INTRODUCED_69_,X_INTRODUCED_71_,X_INTRODUCED_72_):: defines_var(X_INTRODUCED_72_);
constraint int_lin_eq_reif(X_INTRODUCED_1_,[X_INTRODUCED_73_,X_INTRODUCED_74_],-1,X_INTRODUCED_76_):: defines_var(X_INTRODUCED_76_);
constraint int_eq_reif(X_INTRODUCED_77_,X_INTRODUCED_66_,X_INTRODUCED_78_):: defines_var(X_INTRODUCED_78_);
constraint int_lin_eq_reif(X_INTRODUCED_1_,[X_INTRODUCED_80_,X_INTRODUCED_71_],1,X_INTRODUCED_82_):: defines_var(X_INTRODUCED_82_);
constraint int_lin_eq_reif(X_INTRODUCED_1_,[X_INTRODUCED_83_,X_INTRODUCED_74_],-1,X_INTRODUCED_84_):: defines_var(X_INTRODUCED_84_);
constraint int_lin_eq_reif(X_INTRODUCED_1_,[X_INTRODUCED_85_,X_INTRODUCED_66_],-1,X_INTRODUCED_87_):: defines_var(X_INTRODUCED_87_);
constraint int_eq_reif(X_INTRODUCED_89_,X_INTRODUCED_71_,X_INTRODUCED_90_):: defines_var(X_INTRODUCED_90_);
constraint int_eq_reif(X_INTRODUCED_91_,X_INTRODUCED_74_,X_INTRODUCED_92_):: defines_var(X_INTRODUCED_92_);
constraint array_bool_and([X_INTRODUCED_92_,X_INTRODUCED_90_,X_INTRODUCED_87_,X_INTRODUCED_84_,X_INTRODUCED_82_,X_INTRODUCED_78_,X_INTRODUCED_76_,X_INTRODUCED_72_,X_INTRODUCED_67_],X_INTRODUCED_93_):: defines_var(X_INTRODUCED_93_);
constraint int_lin_eq_reif(X_INTRODUCED_1_,[X_INTRODUCED_65_,X_INTRODUCED_66_],1,X_INTRODUCED_95_):: defines_var(X_INTRODUCED_95_);
constraint int_eq_reif(X_INTRODUCED_73_,X_INTRODUCED_74_,X_INTRODUCED_96_):: defines_var(X_INTRODUCED_96_);
constraint int_lin_eq_reif(X_INTRODUCED_1_,[X_INTRODUCED_77_,X_INTRODUCED_66_],1,X_INTRODUCED_97_):: defines_var(X_INTRODUCED_97_);
constraint int_lin_eq_reif(X_INTRODUCED_1_,[X_INTRODUCED_80_,X_INTRODUCED_71_],-1,X_INTRODUCED_99_):: defines_var(X_INTRODUCED_99_);
constraint int_eq_reif(X_INTRODUCED_83_,X_INTRODUCED_74_,X_INTRODUCED_100_):: defines_var(X_INTRODUCED_100_);
constraint int_eq_reif(X_INTRODUCED_85_,X_INTRODUCED_66_,X_INTRODUCED_101_):: defines_var(X_INTRODUCED_101_);
constraint int_lin_eq_reif(X_INTRODUCED_1_,[X_INTRODUCED_91_,X_INTRODUCED_74_],1,X_INTRODUCED_103_):: defines_var(X_INTRODUCED_103_);
constraint array_bool_and([X_INTRODUCED_103_,X_INTRODUCED_101_,X_INTRODUCED_100_,X_INTRODUCED_99_,X_INTRODUCED_97_,X_INTRODUCED_96_,X_INTRODUCED_95_,X_INTRODUCED_90_,X_INTRODUCED_72_],X_INTRODUCED_104_):: defines_var(X_INTRODUCED_104_);
constraint int_lin_eq_reif(X_INTRODUCED_1_,[X_INTRODUCED_65_,X_INTRODUCED_66_],-1,X_INTRODUCED_105_):: defines_var(X_INTRODUCED_105_);
constraint int_lin_eq_reif(X_INTRODUCED_1_,[X_INTRODUCED_77_,X_INTRODUCED_66_],-1,X_INTRODUCED_106_):: defines_var(X_INTRODUCED_106_);
constraint array_bool_and([X_INTRODUCED_106_,X_INTRODUCED_105_,X_INTRODUCED_103_,X_INTRODUCED_101_,X_INTRODUCED_100_,X_INTRODUCED_96_,X_INTRODUCED_90_,X_INTRODUCED_82_,X_INTRODUCED_72_],X_INTRODUCED_107_):: defines_var(X_INTRODUCED_107_);
constraint int_eq_reif(X_INTRODUCED_80_,X_INTRODUCED_71_,X_INTRODUCED_108_):: defines_var(X_INTRODUCED_108_);
constraint int_lin_eq_reif(X_INTRODUCED_1_,[X_INTRODUCED_83_,X_INTRODUCED_74_],1,X_INTRODUCED_109_):: defines_var(X_INTRODUCED_109_);
constraint int_lin_eq_reif(X_INTRODUCED_1_,[X_INTRODUCED_89_,X_INTRODUCED_71_],-1,X_INTRODUCED_110_):: defines_var(X_INTRODUCED_110_);
constraint array_bool_and([X_INTRODUCED_110_,X_INTRODUCED_109_,X_INTRODUCED_108_,X_INTRODUCED_106_,X_INTRODUCED_105_,X_INTRODUCED_101_,X_INTRODUCED_96_,X_INTRODUCED_92_,X_INTRODUCED_72_],X_INTRODUCED_111_):: defines_var(X_INTRODUCED_111_);
constraint int_lin_eq_reif(X_INTRODUCED_1_,[X_INTRODUCED_69_,X_INTRODUCED_71_],-1,X_INTRODUCED_112_):: defines_var(X_INTRODUCED_112_);
constraint int_lin_eq_reif(X_INTRODUCED_1_,[X_INTRODUCED_73_,X_INTRODUCED_74_],1,X_INTRODUCED_114_):: defines_var(X_INTRODUCED_114_);
constraint int_lin_eq_reif(X_INTRODUCED_1_,[X_INTRODUCED_91_,X_INTRODUCED_74_],-1,X_INTRODUCED_117_):: defines_var(X_INTRODUCED_117_);
constraint int_lin_eq_reif(X_INTRODUCED_1_,[X_INTRODUCED_89_,X_INTRODUCED_71_],1,X_INTRODUCED_119_):: defines_var(X_INTRODUCED_119_);
constraint array_bool_and([X_INTRODUCED_119_,X_INTRODUCED_109_,X_INTRODUCED_108_,X_INTRODUCED_101_,X_INTRODUCED_97_,X_INTRODUCED_96_,X_INTRODUCED_95_,X_INTRODUCED_92_,X_INTRODUCED_72_],X_INTRODUCED_120_):: defines_var(X_INTRODUCED_120_);
constraint int_lin_eq_reif(X_INTRODUCED_1_,[X_INTRODUCED_85_,X_INTRODUCED_66_],1,X_INTRODUCED_122_):: defines_var(X_INTRODUCED_122_);
constraint array_bool_and([X_INTRODUCED_122_,X_INTRODUCED_112_,X_INTRODUCED_109_,X_INTRODUCED_99_,X_INTRODUCED_96_,X_INTRODUCED_92_,X_INTRODUCED_90_,X_INTRODUCED_78_,X_INTRODUCED_67_],X_INTRODUCED_123_):: defines_var(X_INTRODUCED_123_);
constraint array_bool_and([X_INTRODUCED_119_,X_INTRODUCED_114_,X_INTRODUCED_109_,X_INTRODUCED_108_,X_INTRODUCED_106_,X_INTRODUCED_101_,X_INTRODUCED_92_,X_INTRODUCED_72_,X_INTRODUCED_67_],X_INTRODUCED_125_):: defines_var(X_INTRODUCED_125_);
constraint array_bool_and([X_INTRODUCED_122_,X_INTRODUCED_114_,X_INTRODUCED_109_,X_INTRODUCED_92_,X_INTRODUCED_90_,X_INTRODUCED_82_,X_INTRODUCED_78_,X_INTRODUCED_72_,X_INTRODUCED_67_],X_INTRODUCED_126_):: defines_var(X_INTRODUCED_126_);
constraint int_lin_eq_reif(X_INTRODUCED_1_,[X_INTRODUCED_69_,X_INTRODUCED_71_],1,X_INTRODUCED_127_):: defines_var(X_INTRODUCED_127_);
constraint array_bool_and([X_INTRODUCED_127_,X_INTRODUCED_103_,X_INTRODUCED_101_,X_INTRODUCED_100_,X_INTRODUCED_97_,X_INTRODUCED_96_,X_INTRODUCED_90_,X_INTRODUCED_82_,X_INTRODUCED_67_],X_INTRODUCED_128_):: defines_var(X_INTRODUCED_128_);
constraint array_bool_and([X_INTRODUCED_117_,X_INTRODUCED_112_,X_INTRODUCED_101_,X_INTRODUCED_100_,X_INTRODUCED_99_,X_INTRODUCED_97_,X_INTRODUCED_96_,X_INTRODUCED_90_,X_INTRODUCED_67_],X_INTRODUCED_129_):: defines_var(X_INTRODUCED_129_);
constraint array_bool_and([X_INTRODUCED_119_,X_INTRODUCED_108_,X_INTRODUCED_101_,X_INTRODUCED_97_,X_INTRODUCED_92_,X_INTRODUCED_84_,X_INTRODUCED_76_,X_INTRODUCED_72_,X_INTRODUCED_67_],X_INTRODUCED_130_):: defines_var(X_INTRODUCED_130_);
constraint array_bool_and([X_INTRODUCED_127_,X_INTRODUCED_122_,X_INTRODUCED_96_,X_INTRODUCED_92_,X_INTRODUCED_90_,X_INTRODUCED_84_,X_INTRODUCED_82_,X_INTRODUCED_78_,X_INTRODUCED_67_],X_INTRODUCED_137_):: defines_var(X_INTRODUCED_137_);
solve  satisfy;
